============================[ Problem Statistics ]=============================|                                                                             ||  Number of variables:          4242                                         ||  Number of clauses:            9622                                         ||  Parse time:                   0.03 s                                       ||                                                                             |============================[ Search Statistics ]==============================| Conflicts |          ORIGINAL         |          LEARNT          | Progress ||           |    Vars  Clauses Literals |    Limit  Clauses Lit/Cl |          |==============================================================================================================================================================restarts              : 1conflicts             : 19             (528 /sec)decisions             : 106            (0.00 % random) (2944 /sec)propagations          : 8041           (223361 /sec)conflict literals     : 221            (93.29 % deleted)CPU time              : 0.036 sSATISFIABLE